\ENCODING=ISO-8859-1
\Problem name: TSP model version 1

Minimize
 obj1: 694.543530116182 x(1,2) + 381.171521057425 x(1,3)
       + 416.186832001011 x(1,4) + 499.199379293064 x(1,5)
       + 425.296914842254 x(1,6) + 509.723844447378 x(1,7)
       + 270.288565180648 x(1,8) + 404.744053277512 x(1,9)
       + 425.512042400609 x(1,10) + 918.312749959971 x(2,3)
       + 365.757299376573 x(2,4) + 326.686862170288 x(2,5)
       + 462.698003824405 x(2,6) + 502.57308070992 x(2,7)
       + 532.727435979146 x(2,8) + 302.784925480822 x(2,9)
       + 542.117131280082 x(2,10) + 557.12974008493 x(3,4)
       + 619.228165218961 x(3,5) + 483.952413332319 x(3,6)
       + 878.012157988072 x(3,7) + 639.506537166889 x(3,8)
       + 621.750756004739 x(3,9) + 421.572327419251 x(3,10)
       + 83.0276355954781 x(4,5) + 110.296004380345 x(4,6)
       + 547.835230820768 x(4,7) + 407.662981911651 x(4,8)
       + 114.84525668362 x(4,9) + 188.167906450831 x(4,10)
       + 139.90799036767 x(5,6) + 592.690222759962 x(5,7)
       + 476.530733668616 x(5,8) + 158.032229003788 x(5,9)
       + 217.152246972588 x(5,10) + 645.111733719156 x(6,7)
       + 480.153106985636 x(6,8) + 222.819708163018 x(6,9)
       + 80.0173240909777 x(6,10) + 240.024795091425 x(7,8)
       + 437.441175432887 x(7,9) + 705.603254227064 x(7,10)
       + 325.024348058421 x(8,9) + 523.434084339234 x(8,10)
       + 296.88706324711 x(9,10)
Subject To
 degree(1):  x(1,2) + x(1,3) + x(1,4) + x(1,5) + x(1,6) + x(1,7) + x(1,8)
             + x(1,9) + x(1,10)  = 2
 degree(2):  x(1,2) + x(2,3) + x(2,4) + x(2,5) + x(2,6) + x(2,7) + x(2,8)
             + x(2,9) + x(2,10)  = 2
 degree(3):  x(1,3) + x(2,3) + x(3,4) + x(3,5) + x(3,6) + x(3,7) + x(3,8)
             + x(3,9) + x(3,10)  = 2
 degree(4):  x(1,4) + x(2,4) + x(3,4) + x(4,5) + x(4,6) + x(4,7) + x(4,8)
             + x(4,9) + x(4,10)  = 2
 degree(5):  x(1,5) + x(2,5) + x(3,5) + x(4,5) + x(5,6) + x(5,7) + x(5,8)
             + x(5,9) + x(5,10)  = 2
 degree(6):  x(1,6) + x(2,6) + x(3,6) + x(4,6) + x(5,6) + x(6,7) + x(6,8)
             + x(6,9) + x(6,10)  = 2
 degree(7):  x(1,7) + x(2,7) + x(3,7) + x(4,7) + x(5,7) + x(6,7) + x(7,8)
             + x(7,9) + x(7,10)  = 2
 degree(8):  x(1,8) + x(2,8) + x(3,8) + x(4,8) + x(5,8) + x(6,8) + x(7,8)
             + x(8,9) + x(8,10)  = 2
 degree(9):  x(1,9) + x(2,9) + x(3,9) + x(4,9) + x(5,9) + x(6,9) + x(7,9)
             + x(8,9) + x(9,10)  = 2
 degree(10): x(1,10) + x(2,10) + x(3,10) + x(4,10) + x(5,10) + x(6,10)
             + x(7,10) + x(8,10) + x(9,10)  = 2
Bounds
 0 <= x(1,2) <= 1
 0 <= x(1,3) <= 1
 0 <= x(1,4) <= 1
 0 <= x(1,5) <= 1
 0 <= x(1,6) <= 1
 0 <= x(1,7) <= 1
 0 <= x(1,8) <= 1
 0 <= x(1,9) <= 1
 0 <= x(1,10) <= 1
 0 <= x(2,3) <= 1
 0 <= x(2,4) <= 1
 0 <= x(2,5) <= 1
 0 <= x(2,6) <= 1
      x(2,7) = 1
 0 <= x(2,8) <= 1
      x(2,9) = 1
 0 <= x(2,10) <= 1
 0 <= x(3,4) <= 1
 0 <= x(3,5) <= 1
 0 <= x(3,6) <= 1
 0 <= x(3,7) <= 1
 0 <= x(3,8) <= 1
 0 <= x(3,9) <= 1
 0 <= x(3,10) <= 1
      x(4,5) = 1
 0 <= x(4,6) <= 1
 0 <= x(4,7) <= 1
 0 <= x(4,8) <= 1
 0 <= x(4,9) <= 1
 0 <= x(4,10) <= 1
 0 <= x(5,6) <= 1
 0 <= x(5,7) <= 1
 0 <= x(5,8) <= 1
 0 <= x(5,9) <= 1
 0 <= x(5,10) <= 1
 0 <= x(6,7) <= 1
 0 <= x(6,8) <= 1
 0 <= x(6,9) <= 1
 0 <= x(6,10) <= 1
      x(7,8) = 1
 0 <= x(7,9) <= 1
 0 <= x(7,10) <= 1
 0 <= x(8,9) <= 1
 0 <= x(8,10) <= 1
 0 <= x(9,10) <= 1
Binaries
 x(1,2)  x(1,3)  x(1,4)  x(1,5)  x(1,6)  x(1,7)  x(1,8)  x(1,9)  x(1,10) 
 x(2,3)  x(2,4)  x(2,5)  x(2,6)  x(2,8)  x(2,10)  x(3,4)  x(3,5)  x(3,6) 
 x(3,7)  x(3,8)  x(3,9)  x(3,10)  x(4,6)  x(4,7)  x(4,8)  x(4,9)  x(4,10) 
 x(5,6)  x(5,7)  x(5,8)  x(5,9)  x(5,10)  x(6,7)  x(6,8)  x(6,9)  x(6,10) 
 x(7,9)  x(7,10)  x(8,9)  x(8,10)  x(9,10) 
End
